param n := 2;

param m := 5;

param K := 500;

param a :=
1 	 0.811859
2 	 0.874962
;
 param A :=
[1, *, *]:  1	2	:=
1	0.376827	-0.678057	
2	0.138989	-0.066240	

[2, *, *]:  1	2	:=
1	-0.309656	0.185024	
2	-0.549920	-0.375460	

[3, *, *]:  1	2	:=
1	0.832611	-0.485763	
2	0.819271	-0.778217	

[4, *, *]:  1	2	:=
1	-0.614075	0.457171	
2	-0.000832	-0.583611	

[5, *, *]:  1	2	:=
1	-0.503933	-0.168303	
2	0.703344	0.233370	
;